14 19

16 8 9 9 2 14 7 7 5 15 11 3
11 11 5 12 9 12 6 15
14 8 5 8 19 2 8 12
7 13 4 15 16 12 5 6 14 5
19 15 6 10 10 15 14 11 13 12
12 5 14 15 19 13 17 6 9 14 18 6
18 7 5 9 12 9 7 11 10 11 15 13
9 7 14 4 13 8 10 14 19 4
2 4 3 5 9 8 6 9
8 13 13 5 15 4 14 13
14 2 3 14 4 11 16 15 18 2
10 6 9 11 3 14 6 5
7 14 16 10 14 6 8 10 10 13
11 2 14 5 10 10 8 8 12 7 19 8
